p tdp 16 51
1 2
1 5
1 9
1 11
1 13
1 16
2 7
2 10
2 14
3 4
3 7
3 11
3 15
4 8
4 9
4 13
4 14
5 6
5 13
5 14
5 16
6 7
6 9
6 10
6 12
6 14
7 8
7 10
7 11
7 13
7 14
8 14
8 16
9 10
9 11
9 13
9 15
9 16
10 12
10 13
10 15
10 16
11 12
11 13
11 15
11 16
12 14
12 16
13 15
13 16
15 16
